p ds 60 5
1 6
1 8
1 9
1 12
1 14
1 16
1 19
1 21
1 22
1 23
1 25
1 27
1 28
1 29
1 31
1 32
1 33
1 35
1 36
1 38
1 39
1 41
1 43
1 45
1 47
1 48
1 49
1 51
1 53
1 55
1 56
1 57
1 59
1 60
2 4
2 5
2 7
2 8
2 10
2 11
2 12
2 14
2 15
2 18
2 21
2 22
2 23
2 27
2 28
2 31
2 32
2 33
2 34
2 36
2 39
2 40
2 41
2 42
2 43
2 44
2 46
2 51
2 57
2 60
3 4
3 5
3 7
3 8
3 12
3 13
3 16
3 21
3 28
3 29
3 31
3 34
3 37
3 38
3 39
3 42
3 44
3 45
3 52
3 53
3 58
3 59
3 60
4 11
4 18
4 19
4 20
4 21
4 22
4 23
4 24
4 28
4 29
4 30
4 32
4 34
4 37
4 39
4 40
4 42
4 45
4 46
4 47
4 52
4 55
4 57
4 59
4 60
5 6
5 7
5 9
5 17
5 20
5 21
5 24
5 25
5 27
5 28
5 29
5 31
5 34
5 37
5 39
5 42
5 44
5 49
5 50
5 51
5 52
5 59
6 7
6 8
6 11
6 12
6 20
6 21
6 22
6 23
6 24
6 25
6 28
6 29
6 32
6 33
6 36
6 39
6 40
6 41
6 42
6 45
6 46
6 50
6 51
6 54
6 55
6 56
6 57
6 58
7 8
7 10
7 13
7 16
7 17
7 19
7 21
7 22
7 25
7 28
7 29
7 31
7 32
7 33
7 34
7 35
7 36
7 37
7 38
7 43
7 47
7 48
7 50
7 52
7 54
7 55
7 57
7 58
8 9
8 10
8 11
8 12
8 16
8 17
8 18
8 22
8 24
8 25
8 26
8 29
8 30
8 34
8 37
8 40
8 41
8 42
8 43
8 44
8 45
8 46
8 50
8 54
8 55
8 57
8 58
8 60
9 11
9 12
9 14
9 17
9 18
9 19
9 22
9 23
9 25
9 26
9 27
9 28
9 30
9 31
9 32
9 34
9 35
9 37
9 38
9 40
9 42
9 48
9 50
9 51
9 56
9 57
9 59
9 60
10 11
10 12
10 16
10 18
10 21
10 22
10 24
10 25
10 26
10 27
10 31
10 32
10 37
10 43
10 44
10 48
10 50
10 53
11 14
11 15
11 17
11 18
11 19
11 20
11 22
11 23
11 24
11 25
11 29
11 30
11 31
11 34
11 35
11 36
11 42
11 43
11 44
11 45
11 46
11 49
11 50
11 54
12 13
12 14
12 15
12 16
12 18
12 23
12 24
12 25
12 26
12 27
12 28
12 29
12 30
12 31
12 32
12 34
12 35
12 39
12 40
12 41
12 44
12 47
12 49
12 52
12 53
12 54
12 56
12 60
13 14
13 16
13 17
13 19
13 21
13 25
13 26
13 27
13 29
13 30
13 31
13 32
13 33
13 34
13 35
13 36
13 37
13 39
13 41
13 42
13 43
13 47
14 15
14 16
14 18
14 19
14 21
14 22
14 23
14 25
14 29
14 30
14 33
14 42
14 43
14 45
14 46
14 47
14 48
14 50
14 51
14 54
14 55
14 56
14 57
15 17
15 18
15 20
15 22
15 23
15 25
15 30
15 32
15 33
15 34
15 35
15 36
15 38
15 40
15 42
15 46
15 47
15 49
15 51
15 52
15 54
15 56
15 57
15 60
16 18
16 19
16 20
16 22
16 23
16 26
16 29
16 31
16 34
16 40
16 42
16 44
16 45
16 48
16 49
16 52
16 56
16 58
16 59
17 18
17 19
17 21
17 24
17 25
17 26
17 28
17 30
17 31
17 32
17 34
17 35
17 41
17 43
17 44
17 45
17 47
17 50
17 52
17 53
17 56
17 57
18 20
18 21
18 23
18 25
18 26
18 28
18 29
18 31
18 36
18 37
18 38
18 39
18 40
18 43
18 44
18 45
18 48
18 49
18 50
18 51
18 53
18 55
18 56
18 59
18 60
19 20
19 22
19 23
19 30
19 32
19 33
19 38
19 39
19 40
19 41
19 44
19 46
19 48
19 52
19 53
19 56
19 57
19 58
20 23
20 24
20 29
20 30
20 32
20 35
20 37
20 39
20 40
20 43
20 44
20 46
20 47
20 50
20 53
20 56
20 58
20 60
21 22
21 23
21 24
21 25
21 27
21 28
21 29
21 30
21 38
21 40
21 42
21 45
21 46
21 47
21 49
21 51
21 53
21 55
21 56
21 58
22 25
22 27
22 33
22 34
22 37
22 42
22 44
22 45
22 49
22 51
22 52
22 55
22 57
22 58
22 59
22 60
23 24
23 28
23 30
23 31
23 34
23 35
23 36
23 37
23 39
23 42
23 43
23 45
23 49
23 52
23 53
23 55
23 56
23 59
24 29
24 30
24 31
24 35
24 36
24 38
24 39
24 40
24 43
24 45
24 46
24 47
24 48
24 50
24 52
24 53
24 54
24 56
24 57
24 58
24 59
25 28
25 29
25 32
25 35
25 36
25 37
25 39
25 41
25 44
25 47
25 48
25 49
25 54
25 55
25 56
25 57
25 59
26 29
26 32
26 33
26 35
26 37
26 39
26 40
26 42
26 43
26 46
26 47
26 48
26 49
26 50
26 51
26 53
26 55
26 57
26 59
27 28
27 29
27 30
27 34
27 39
27 40
27 41
27 42
27 44
27 46
27 47
27 49
27 51
27 54
27 55
27 57
27 60
28 30
28 31
28 33
28 34
28 36
28 41
28 43
28 44
28 45
28 47
28 51
28 52
28 54
28 56
28 57
28 59
29 31
29 32
29 35
29 41
29 42
29 45
29 50
29 53
29 57
29 59
30 33
30 35
30 41
30 43
30 45
30 46
30 47
30 48
30 52
30 56
30 57
30 58
30 60
31 35
31 40
31 42
31 45
31 50
31 51
31 55
31 56
31 57
31 58
31 59
32 35
32 36
32 37
32 38
32 39
32 40
32 48
32 49
32 54
32 55
32 56
32 57
32 60
33 34
33 36
33 37
33 43
33 44
33 47
33 48
33 49
33 54
33 55
33 59
33 60
34 37
34 38
34 40
34 43
34 44
34 45
34 46
34 47
34 48
34 52
34 54
34 56
34 57
34 58
35 42
35 46
35 48
35 49
35 52
35 54
35 55
35 59
36 37
36 38
36 39
36 41
36 49
36 50
36 53
36 54
36 55
36 56
36 57
37 38
37 40
37 44
37 45
37 46
37 48
37 49
37 51
37 52
37 53
37 59
38 39
38 40
38 43
38 44
38 45
38 51
38 52
38 54
38 55
38 59
38 60
39 40
39 41
39 42
39 43
39 44
39 45
39 46
39 47
39 49
39 53
39 54
39 57
39 58
39 59
39 60
40 42
40 49
40 50
40 52
40 53
40 56
40 59
41 42
41 43
41 46
41 47
41 50
41 53
41 54
41 55
41 56
41 58
41 60
42 46
42 47
42 50
42 51
42 52
42 55
42 56
42 59
43 44
43 45
43 47
43 48
43 49
43 51
43 52
43 53
43 54
43 59
44 45
44 48
44 49
44 52
44 54
44 55
44 58
44 59
45 50
45 51
45 52
45 53
45 55
45 57
45 58
46 47
46 48
46 49
46 50
46 52
46 53
46 57
46 59
47 48
47 49
47 52
47 55
47 56
47 58
47 60
48 51
48 52
48 55
48 59
49 50
49 51
49 52
49 53
49 56
49 57
49 59
50 51
50 52
50 54
50 57
50 60
51 57
51 58
52 53
52 54
52 55
52 56
52 57
52 59
52 60
53 54
53 55
53 56
53 59
55 56
55 57
55 60
57 58
57 59
57 60
58 59
58 60
59 60
